analyze/results_flowersnark/final_miplib_symretope_if_extended_generating_set_cpx_v802__settings_final_nosym_norestarts__2__square31.mps.gz.sol
solution status: optimal solution found
objective value:                                   15
x_1_1_9                                             1 	(obj:1)
x_1_10_7                                            1 	(obj:1)
x_1_17_15                                           1 	(obj:1)
x_8_10_7                                            1 	(obj:1)
x_10_1_9                                            1 	(obj:1)
x_15_10_4                                           1 	(obj:1)
x_15_14_3                                           1 	(obj:1)
x_16_17_1                                           1 	(obj:1)
x_16_18_6                                           1 	(obj:1)
x_16_24_8                                           1 	(obj:1)
x_17_17_1                                           1 	(obj:1)
x_18_14_4                                           1 	(obj:1)
x_19_1_13                                           1 	(obj:1)
x_22_14_10                                          1 	(obj:1)
x_24_24_8                                           1 	(obj:1)
y_15                                                1 	(obj:0)
y_13                                                1 	(obj:0)
y_10                                                1 	(obj:0)
y_9                                                 2 	(obj:0)
y_8                                                 2 	(obj:0)
y_7                                                 2 	(obj:0)
y_6                                                 1 	(obj:0)
y_4                                                 2 	(obj:0)
y_3                                                 1 	(obj:0)
y_1                                                 2 	(obj:0)
