analyze/results_flowersnark/final_miplib_symretope_if_extended_generating_set_cpx_v802__settings_final_nosym_norestarts__2__square31.mps.gz.out
FILENAME:   /home/mcs001/s132664/testsets/IP/miplib2017/square31.mps.gz
SETTINGS:   settings_final_nosym_norestarts
TIMELIMIT:  7200
OUTPUTNAME: final_miplib_symretope_if_extended_generating_set_cpx_v802__settings_final_nosym_norestarts__2__
BINNAME:    bin/sbcs.linux.x86_64.gnu.opt.cpx
BASENAME:   square31.mps.gz
SEED:       2
@01 /home/mcs001/s132664/testsets/IP/miplib2017/square31.mps.gz ===========
@02 square31.mps.gz
@03 1686656554
SCIP version 8.0.2 [precision: 8 byte] [memory: block] [mode: optimized] [LP solver: CPLEX 20.1.0.0] [GitHash: 5f0473c]
Copyright (C) 2002-2022 Konrad-Zuse-Zentrum fuer Informationstechnik Berlin (ZIB)

Symretope propagation methods - (c) Jasper van Doornmalen, Christopher Hojny.
[GitHash: 2fd0484]

reading parameter file <../settings/settings_final_nosym_norestarts.set> ...

Changed settings:
limits/time = 7200
limits/restarts = 0
misc/usesymmetry = 0
randomization/randomseedshift = 2
constraints/orbisack/sepafreq = -1
constraints/symresack/sepafreq = -1
propagating/symmetry/detectsubgroups = FALSE
propagating/symmetry/usesymretopes = FALSE
propagating/symmetry/relabelsymretopes = 0
propagating/symmetry/ofsymcomptiming = 0
constraints/symretope/sepafreq = -1
constraints/symretope/peek = FALSE


solving problem ...

original problem has 28860 variables (28830 bin, 30 int, 0 impl, 0 cont) and 19435 constraints
presolving:
(round 1, fast)       18415 del vars, 18415 del conss, 0 add conss, 18445 chg bounds, 0 chg sides, 0 chg coeffs, 0 upgd conss, 0 impls, 961 clqs
(round 2, exhaustive) 18415 del vars, 18415 del conss, 0 add conss, 18445 chg bounds, 0 chg sides, 0 chg coeffs, 961 upgd conss, 0 impls, 961 clqs
(round 3, exhaustive) 18415 del vars, 18434 del conss, 0 add conss, 18445 chg bounds, 19 chg sides, 0 chg coeffs, 961 upgd conss, 0 impls, 961 clqs
   (18.3s) probing: 1000/10415 (9.6%) - 0 fixings, 0 aggregations, 22356 implications, 0 bound changes
   (18.4s) probing: 1001/10415 (9.6%) - 0 fixings, 0 aggregations, 22382 implications, 0 bound changes
   (18.4s) probing aborted: 1000/1000 successive useless probings
presolving (4 rounds: 4 fast, 3 medium, 3 exhaustive):
 18415 deleted vars, 18434 deleted constraints, 0 added constraints, 18445 tightened bounds, 0 added holes, 19 changed sides, 0 changed coefficients
 22240 implications, 1103 cliques
presolved problem has 10445 variables (10415 bin, 30 int, 0 impl, 0 cont) and 1001 constraints
    961 constraints of type <setppc>
     40 constraints of type <linear>
transformed objective value is always integral (scale: 1)
Presolving Time: 18.13

 time | node  | left  |LP iter|LP it/n|mem/heur|mdpt |vars |cons |rows |cuts |sepa|confs|strbr|  dualbound   | primalbound  |  gap   | compl. 
p19.9s|     1 |     0 |     0 |     - |  clique|   0 |  10k|1001 |1001 |   0 |  0 |   0 |   0 | 4.000000e+00 | 3.400000e+01 | 750.00%| unknown
 33.8s|     1 |     0 |   817 |     - |  1548M |   0 |  10k|1029 |1001 |   0 |  0 |  29 |   0 | 8.500000e+00 | 3.400000e+01 | 300.00%| unknown
  146s|     1 |     2 | 19633 |     - |  1552M |   0 |  10k|1036 |1001 |   0 |  2 |  37 |  30 | 8.830791e+00 | 3.400000e+01 | 285.02%| unknown
* 249s|     6 |     5 | 24051 |4646.8 |strongbr|   5 |  10k|1015 |1001 |   0 |  1 |  37 | 153 | 8.863193e+00 | 1.800000e+01 | 103.09%| unknown
* 262s|     7 |     4 | 25417 |4100.0 |strongbr|   5 |  10k|1028 |1001 |   0 |  2 | 104 | 189 | 8.863193e+00 | 1.500000e+01 |  69.24%|   1.19%
  338s|   100 |    19 | 82735 | 827.5 |  1568M |  20 |  10k|1117 |1001 |   0 |  0 | 194 | 276 | 8.863193e+00 | 1.500000e+01 |  69.24%|   5.92%
  451s|   200 |    59 |212600 |1064.2 |  1593M |  32 |  10k|1286 |1001 |   0 |  2 | 500 | 347 | 9.684251e+00 | 1.500000e+01 |  54.89%|  16.75%
  488s|   300 |    83 |258914 | 863.2 |  1602M |  46 |  10k|1222 |1001 |   0 |  2 | 563 | 386 | 1.113505e+01 | 1.500000e+01 |  34.71%|  38.24%
  522s|   400 |    95 |316884 | 792.1 |  1610M |  49 |  10k|1227 |1001 |   0 |  2 | 658 | 436 | 1.141672e+01 | 1.500000e+01 |  31.39%|  49.80%
  551s|   500 |   103 |359492 | 718.8 |  1614M |  58 |  10k|1242 |1001 |   0 |  0 | 705 | 470 | 1.170983e+01 | 1.500000e+01 |  28.10%|  53.96%
  580s|   600 |    95 |403160 | 671.7 |  1619M |  58 |  10k|1281 |1001 |   0 |  1 | 756 | 510 | 1.181030e+01 | 1.500000e+01 |  27.01%|  58.90%
  602s|   700 |    89 |441367 | 630.3 |  1621M |  64 |  10k|1272 |1001 |   0 |  2 | 775 | 529 | 1.206969e+01 | 1.500000e+01 |  24.28%|  63.54%
  620s|   800 |    83 |471038 | 588.5 |  1626M |  64 |  10k|1308 |1001 |   0 |  2 | 834 | 567 | 1.216961e+01 | 1.500000e+01 |  23.26%|  65.31%
  649s|   900 |    75 |511715 | 568.3 |  1631M |  72 |  10k|1381 |1001 |   0 |  2 | 957 | 634 | 1.226316e+01 | 1.500000e+01 |  22.32%|  67.76%
  671s|  1000 |    63 |545356 | 545.1 |  1638M |  72 |  10k|1451 |1001 |   0 |  4 |1054 | 686 | 1.247939e+01 | 1.500000e+01 |  20.20%|  71.21%
 time | node  | left  |LP iter|LP it/n|mem/heur|mdpt |vars |cons |rows |cuts |sepa|confs|strbr|  dualbound   | primalbound  |  gap   | compl. 
  704s|  1100 |    39 |576593 | 523.9 |  1657M |  82 |  10k|1661 |1001 |   0 |  2 |1349 | 810 | 1.258551e+01 | 1.500000e+01 |  19.18%|  79.93%

SCIP Status        : problem is solved [optimal solution found]
Solving Time (sec) : 740.78
Solving Nodes      : 1185
Primal Bound       : +1.50000000000000e+01 (3 solutions)
Dual Bound         : +1.50000000000000e+01
Gap                : 0.00 %
SCIP Status        : problem is solved [optimal solution found]
Total Time         :     742.99
  solving          :     740.78
  presolving       :      18.13 (included in solving)
  reading          :       2.22
  copying          :       1.29 (13 #copies) (minimal 0.09, maximal 0.11, average 0.10)
Original Problem   :
  Problem name     : square31
  Variables        : 28860 (28830 binary, 30 integer, 0 implicit integer, 0 continuous)
  Constraints      : 19435 initial, 19435 maximal
  Objective        : minimize, 28830 non-zeros (abs.min = 1, abs.max = 1)
Presolved Problem  :
  Problem name     : t_square31
  Variables        : 10445 (10415 binary, 30 integer, 0 implicit integer, 0 continuous)
  Constraints      : 1001 initial, 1887 maximal
  Objective        : minimize, 10295 non-zeros (abs.min = 1, abs.max = 1)
  Nonzeros         : 1128221 constraint, 835729 clique table
Presolvers         :   ExecTime  SetupTime  Calls  FixedVars   AggrVars   ChgTypes  ChgBounds   AddHoles    DelCons    AddCons   ChgSides   ChgCoefs
  boundshift       :       0.00       0.00      0          0          0          0          0          0          0          0          0          0
  convertinttobin  :       0.00       0.00      0          0          0          0          0          0          0          0          0          0
  domcol           :       0.18       0.00      1          0          0          0          0          0          0          0          0          0
  dualagg          :       0.00       0.00      0          0          0          0          0          0          0          0          0          0
  dualcomp         :       0.00       0.00      0          0          0          0          0          0          0          0          0          0
  dualinfer        :       0.00       0.00      0          0          0          0          0          0          0          0          0          0
  dualsparsify     :       0.95       0.00      1          0          0          0          0          0          0          0          0          0
  gateextraction   :       0.00       0.00      0          0          0          0          0          0          0          0          0          0
  implics          :       0.00       0.00      3          0          0          0          0          0          0          0          0          0
  inttobinary      :       0.00       0.00      4          0          0          0          0          0          0          0          0          0
  qpkktref         :       0.00       0.00      0          0          0          0          0          0          0          0          0          0
  redvub           :       0.00       0.00      0          0          0          0          0          0          0          0          0          0
  sparsify         :       0.71       0.00      1          0          0          0          0          0          0          0          0          0
  stuffing         :       0.00       0.00      0          0          0          0          0          0          0          0          0          0
  trivial          :       0.00       0.00      4          0          0          0          0          0          0          0          0          0
  tworowbnd        :       0.00       0.00      0          0          0          0          0          0          0          0          0          0
  dualfix          :       0.00       0.00      4          0          0          0          0          0          0          0          0          0
  genvbounds       :       0.00       0.00      0          0          0          0          0          0          0          0          0          0
  probing          :      10.81       0.00      1          0          0          0          0          0          0          0          0          0
  pseudoobj        :       0.00       0.00      0          0          0          0          0          0          0          0          0          0
  symmetry         :       0.00       0.00      0          0          0          0          0          0          0          0          0          0
  vbounds          :       0.02       0.00      1          0          0          0          0          0          0          0          0          0
  knapsack         :       0.00       0.00      0          0          0          0          0          0          0          0          0          0
  setppc           :       0.40       0.01      6          0          0          0          0          0          0          0          0          0
  linear           :       4.58       0.97      7      18415          0          0      18445          0      18434          0         19          0
  logicor          :       0.00       0.00      0          0          0          0          0          0          0          0          0          0
  bounddisjunction :       0.00       0.00      0          0          0          0          0          0          0          0          0          0
  benders          :       0.00       0.00      0          0          0          0          0          0          0          0          0          0
  components       :       0.19       0.00      1          0          0          0          0          0          0          0          0          0
  root node        :          -          -      -        705          -          -        731          -          -          -          -          -
Constraints        :     Number  MaxNumber  #Separate #Propagate    #EnfoLP    #EnfoRelax  #EnfoPS    #Check   #ResProp    Cutoffs    DomReds       Cuts    Applied      Conss   Children
  benderslp        :          0          0          0          0        724          0          0         41          0          0          0          0          0          0          0
  integral         :          0          0          0          0        724          0          0         41          0          0       1175          0          0       1163       1184
  knapsack         :          0+         6          0       3950          0          0          0          0         31          0         48          0          0          0          0
  setppc           :        961+       973          1      13965          0          0          0         35     354217        128     310377          0          0          0          0
  linear           :         40         40          1      13837          0          0          0          3      57332          7      20408          0          0          0          0
  logicor          :          0+        88          1       1977          0          0          0          0         35          8         28          0          0          0          0
  bounddisjunction :          0+       845          0       2804          0          0          0          0        298         11         14          0          0          0          0
  benders          :          0          0          0          0          0          0          0          4          0          0          0          0          0          0          0
  countsols        :          0          0          0          0          0          0          0          4          0          0          0          0          0          0          0
  components       :          0          0          0          0          0          0          0          0          0          0          0          0          0          0          0
Constraint Timings :  TotalTime  SetupTime   Separate  Propagate     EnfoLP     EnfoPS     EnfoRelax   Check    ResProp    SB-Prop
  benderslp        :       0.00       0.00       0.00       0.00       0.00       0.00       0.00       0.00       0.00       0.00
  integral         :     354.88       0.00       0.00       0.00     354.87       0.00       0.00       0.02       0.00       0.00
  knapsack         :       0.01       0.00       0.00       0.00       0.00       0.00       0.00       0.00       0.00       0.00
  setppc           :       6.55       0.01       0.08       2.00       0.00       0.00       0.00       0.04       0.77       3.64
  linear           :       3.63       0.97       0.00       1.98       0.00       0.00       0.00       0.00       0.28       0.39
  logicor          :       0.04       0.00       0.00       0.03       0.00       0.00       0.00       0.00       0.00       0.01
  bounddisjunction :       0.22       0.00       0.00       0.10       0.00       0.00       0.00       0.00       0.05       0.07
  benders          :       0.00       0.00       0.00       0.00       0.00       0.00       0.00       0.00       0.00       0.00
  countsols        :       0.00       0.00       0.00       0.00       0.00       0.00       0.00       0.00       0.00       0.00
  components       :       0.00       0.00       0.00       0.00       0.00       0.00       0.00       0.00       0.00       0.00
Propagators        : #Propagate   #ResProp    Cutoffs    DomReds
  dualfix          :          3          0          0          0
  genvbounds       :          0          0          0          0
  nlobbt           :          0          0          0          0
  obbt             :          0          0          0          0
  probing          :          0          0          0          0
  pseudoobj        :       4594          0          0          2
  redcost          :       2749          0          0     460543
  rootredcost      :          3          0          0        643
  symmetry         :          0          0          0          0
  vbounds          :       5782          0          0          0
Propagator Timings :  TotalTime  SetupTime   Presolve  Propagate    ResProp    SB-Prop
  dualfix          :       0.00       0.00       0.00       0.00       0.00       0.00
  genvbounds       :       0.01       0.00       0.00       0.00       0.00       0.00
  nlobbt           :       0.00       0.00       0.00       0.00       0.00       0.00
  obbt             :       0.00       0.00       0.00       0.00       0.00       0.00
  probing          :      10.81       0.00      10.81       0.00       0.00       0.00
  pseudoobj        :       0.05       0.00       0.00       0.05       0.00       0.00
  redcost          :       2.44       0.00       0.00       2.44       0.00       0.00
  rootredcost      :       0.07       0.00       0.00       0.06       0.00       0.00
  symmetry         :       0.00       0.00       0.00       0.00       0.00       0.00
  vbounds          :       0.05       0.00       0.02       0.03       0.00       0.00
Conflict Analysis  :       Time      Calls    Success    DomReds  Conflicts   Literals    Reconvs ReconvLits   Dualrays   Nonzeros   LP Iters   (pool size: [10000,10000])
  propagation      :       0.58        149        138          -        893     1329.6          0        0.0          -          -          -
  infeasible LP    :       3.82        198         11          -         55     1407.0          0        0.0          6      146.0          0
  bound exceed. LP :      75.78        466        451          -       2534      952.1         30      273.3         25        1.0       6740
  strong branching :       0.00          0          0          -          0        0.0          0        0.0          -          -          0
  pseudo solution  :       0.00          0          0          -          0        0.0          0        0.0          -          -          -
  applied globally :      51.26          -          -         25       1594      574.8          -          -         31          -          -
  applied locally  :          -          -          -          0         99     2220.1          -          -          0          -          -
Separators         :   ExecTime  SetupTime      Calls  RootCalls    Cutoffs    DomReds  FoundCuts ViaPoolAdd  DirectAdd    Applied ViaPoolApp  DirectApp      Conss
  cut pool         :       0.00          -          0          0          -          -          0          0          -          -          -          -          -    (maximal pool size:          0)
  aggregation      :       1.19       0.00         90          1          0          0          0          0          0          0          0          0          0
  > cmir           :          -          -          -          -          -          -          -          0          0          0          0          0          -
  > flowcover      :          -          -          -          -          -          -          -          0          0          0          0          0          -
  > knapsackcover  :          -          -          -          -          -          -          -          0          0          0          0          0          -
  cgmip            :       0.00       0.00          0          0          0          0          0          0          0          0          0          0          0
  clique           :       5.26       0.00          1          1          0          0          0          0          0          0          0          0          0
  closecuts        :       0.00       0.00          0          0          0          0          0          0          0          0          0          0          0
  convexproj       :       0.00       0.00          0          0          0          0          0          0          0          0          0          0          0
  disjunctive      :       0.00       0.00          0          0          0          0          0          0          0          0          0          0          0
  eccuts           :       0.00       0.00          0          0          0          0          0          0          0          0          0          0          0
  gauge            :       0.00       0.00          0          0          0          0          0          0          0          0          0          0          0
  gomory           :       2.14       0.00         90          1          0          0          0          0          0          0          0          0          0
  > gomorymi       :          -          -          -          -          -          -          -          0          0          0          0          0          -
  > strongcg       :          -          -          -          -          -          -          -          0          0          0          0          0          -
  impliedbounds    :       0.06       0.00         90          1          0          0          0          0          0          0          0          0          0
  interminor       :       0.00       0.00          0          0          0          0          0          0          0          0          0          0          0
  intobj           :       0.00       0.00          0          0          0          0          0          0          0          0          0          0          0
  mcf              :       0.01       0.00          1          1          0          0          0          0          0          0          0          0          0
  minor            :       0.00       0.00          0          0          0          0          0          0          0          0          0          0          0
  mixing           :       0.00       0.00         90          1          0          0          0          0          0          0          0          0          0
  oddcycle         :       0.00       0.00          0          0          0          0          0          0          0          0          0          0          0
  rapidlearning    :       0.01       0.00          0          0          0          0          0          0          0          0          0          0          0
  rlt              :       0.00       0.00          1          1          0          0          0          0          0          0          0          0          0
  zerohalf         :       0.50       0.00         90          1          0          0          0          0          0          0          0          0          0
Cutselectors       :   ExecTime  SetupTime      Calls  RootCalls   Selected     Forced   Filtered  RootSelec   RootForc   RootFilt 
  hybrid           :       0.00       0.00          0          0          0          0          0          0          0          0
Pricers            :   ExecTime  SetupTime      Calls       Vars
  problem variables:       0.00          -          0          0
Branching Rules    :   ExecTime  SetupTime   BranchLP  BranchExt   BranchPS    Cutoffs    DomReds       Cuts      Conss   Children
  allfullstrong    :       0.00       0.00          0          0          0          0          0          0          0          0
  cloud            :       0.00       0.00          0          0          0          0          0          0          0          0
  distribution     :       0.00       0.00          0          0          0          0          0          0          0          0
  fullstrong       :       0.00       0.00          0          0          0          0          0          0          0          0
  inference        :       0.00       0.00          0          0          0          0          0          0          0          0
  leastinf         :       0.00       0.00          0          0          0          0          0          0          0          0
  lookahead        :       0.00       0.00          0          0          0          0          0          0          0          0
  mostinf          :       0.00       0.00          0          0          0          0          0          0          0          0
  multaggr         :       0.00       0.00          0          0          0          0          0          0          0          0
  nodereopt        :       0.00       0.00          0          0          0          0          0          0          0          0
  pscost           :       0.00       0.00          0          0          0          0          0          0          0          0
  random           :       0.00       0.00          0          0          0          0          0          0          0          0
  relpscost        :     354.87       0.00        724          0          0          0       1175          0       1297       1184
  vanillafullstrong:       0.00       0.00          0          0          0          0          0          0          0          0
Primal Heuristics  :   ExecTime  SetupTime      Calls      Found       Best
  LP solutions     :       0.00          -          -          0          0
  relax solutions  :       0.00          -          -          0          0
  pseudo solutions :       0.00          -          -          0          0
  strong branching :       0.02          -          -          2          2
  actconsdiving    :       0.00       0.00          0          0          0
  adaptivediving   :       2.26       0.00          4          0          0
  alns             :       2.28       0.00          5          0          0
  bound            :       0.00       0.00          0          0          0
  clique           :       0.41       0.00          1          1          1
  coefdiving       :       0.00       0.00          0          0          0
  completesol      :       0.00       0.00          0          0          0
  conflictdiving   :      17.03       0.00          3          0          0
  crossover        :       0.15       0.00          1          0          0
  dins             :       0.00       0.00          0          0          0
  distributiondivin:       1.63       0.00          2          0          0
  dps              :       0.00       0.00          0          0          0
  dualval          :       0.00       0.00          0          0          0
  farkasdiving     :       0.00       0.00          0          0          0
  feaspump         :      47.28       0.00          1          0          0
  fixandinfer      :       0.00       0.00          0          0          0
  fracdiving       :       0.32       0.00          2          0          0
  gins             :       0.13       0.00          0          0          0
  guideddiving     :       0.10       0.00          2          0          0
  indicator        :       0.00       0.00          0          0          0
  intdiving        :       0.00       0.00          0          0          0
  intshifting      :       0.00       0.00          0          0          0
  linesearchdiving :       4.39       0.00          2          0          0
  localbranching   :       0.00       0.00          0          0          0
  locks            :       0.17       0.00          1          0          0
  lpface           :       0.00       0.00          0          0          0
  mpec             :       0.00       0.00          0          0          0
  multistart       :       0.00       0.00          0          0          0
  mutation         :       0.00       0.00          0          0          0
  nlpdiving        :       0.00       0.00          0          0          0
  objpscostdiving  :       9.90       0.00          1          0          0
  octane           :       0.00       0.00          0          0          0
  ofins            :       0.00       0.00          0          0          0
  oneopt           :       0.06       0.00          3          0          0
  padm             :       0.00       0.00          0          0          0
  proximity        :       0.00       0.00          0          0          0
  pscostdiving     :       0.24       0.00          3          0          0
  randrounding     :       0.11       0.00         29          0          0
  rens             :       0.16       0.00          1          0          0
  reoptsols        :       0.00       0.00          0          0          0
  repair           :       0.00       0.00          0          0          0
  rins             :       1.16       0.00          6          0          0
  rootsoldiving    :       4.85       0.00          1          0          0
  rounding         :       1.09       0.00        314          0          0
  shiftandpropagate:       0.00       0.00          0          0          0
  shifting         :       1.98       0.00         81          0          0
  simplerounding   :       0.00       0.00          0          0          0
  subnlp           :       0.00       0.00          0          0          0
  trivial          :       0.06       0.00          2          0          0
  trivialnegation  :       0.00       0.00          0          0          0
  trustregion      :       0.00       0.00          0          0          0
  trysol           :       0.00       0.00          0          0          0
  twoopt           :       0.00       0.00          0          0          0
  undercover       :       0.00       0.00          0          0          0
  vbounds          :      12.66       0.00          1          0          0
  veclendiving     :       0.27       0.00          2          0          0
  zeroobj          :       0.00       0.00          0          0          0
  zirounding       :       0.07       0.00        592          0          0
  other solutions  :          -          -          -          0          -
LP                 :       Time      Calls Iterations  Iter/call   Iter/sec  Time-0-It Calls-0-It    ItLimit
  primal LP        :       0.00          0          0       0.00          -       0.00          0
  dual LP          :     224.61       2606     562364     443.50    2503.78       5.81       1338
  lex dual LP      :       0.00          0          0       0.00          -
  barrier LP       :       0.00          0          0       0.00          -       0.00          0
  resolve instable :       0.00          0          0       0.00          -
  diving/probing LP:      79.77         39      54507    1397.62     683.31
  strong branching :     273.00        992     404801     408.07    1482.77          -          -        506
    (at root node) :          -         30      25527     850.90          -
  conflict analysis:      20.29        674       6740      10.00     332.11
B&B Tree           :
  number of runs   :          1
  nodes            :       1185 (592 internal, 593 leaves)
  feasible leaves  :          0
  infeas. leaves   :        129
  objective leaves :        464
  nodes (total)    :       1185 (592 internal, 593 leaves)
  nodes left       :          0
  max depth        :         82
  max depth (total):         82
  backtracks       :        239 (20.2%)
  early backtracks :          0 (0.0%)
  nodes exc. ref.  :          0 (0.0%)
  delayed cutoffs  :          0
  repropagations   :         22 (9 domain reductions, 0 cutoffs)
  avg switch length:       6.54
  switching time   :       3.81
Root Node          :
  First LP value   : +8.50000000000001e+00
  First LP Iters   :        817 (816.20 Iter/sec)
  First LP Time    :       1.00
  Final Dual Bound : +8.83079086353556e+00
  Final Root Iters :        817
  Root LP Estimate : +1.32279397848358e+01
Solution           :
  Solutions found  :          3 (3 improvements)
  First Solution   : +3.40000000000000e+01   (in run 1, after 1 nodes, 19.95 seconds, depth 6, found by <clique>)
  Gap First Sol.   :     750.00 %
  Gap Last Sol.    :      69.24 %
  Primal Bound     : +1.50000000000000e+01   (in run 1, after 7 nodes, 261.87 seconds, depth 7, found by <relaxation>)
  Dual Bound       : +1.50000000000000e+01
  Gap              :       0.00 %
Integrals          :      Total       Avg%
  primal-dual      :   33465.51      45.18
  primal-ref       :          -          - (not evaluated)
  dual-ref         :          -          - (not evaluated)
written solution information to file <results/final_miplib_symretope_if_extended_generating_set_cpx_v802__settings_final_nosym_norestarts__2__square31.mps.gz.sol>
@04 1686657298
